Minimize

5 x_0 + 4 x_1 + 3 x_2 + 5 x_3 + 5 x_4 + 8 x_5 + 8 x_6 + 7 x_7 + 6 x_8 + 10 x_9


Subject To

a0: 2 x_0 + 1 x_1 + 3 x_2 + 1 x_3 + 1 x_4 + 1 x_5 + 2 x_6 + 5 x_7 + 4 x_8 + 4 x_9 - 3 x_0 - 3 x_1 - 3 x_2 - 3 x_3 - 3 x_4 - 3 x_5 - 3 x_6 - 3 x_7 - 3 x_8 - 3 x_9 >= 0
b0: x_0 + x_7 >= 1
b1: x_1 + x_4 + x_8 >= 1
b2: x_2 + x_6 + x_9 >= 1
b3: x_3 >= 1
b4: x_1 + x_4 + x_8 >= 1
b5: x_5 >= 1
b6: x_2 + x_6 + x_9 >= 1
b7: x_0 + x_7 >= 1
b8: x_1 + x_4 + x_8 >= 1
b9: x_2 + x_6 + x_9 >= 1
c0: 5 x_0 + 7 x_7 <= 10
c1: 4 x_1 + 5 x_4 + 6 x_8 <= 10
c2: 3 x_2 + 8 x_6 + 10 x_9 <= 10
c3: 5 x_3 <= 10
c4: 4 x_1 + 5 x_4 + 6 x_8 <= 10
c5: 8 x_5 <= 10
c6: 3 x_2 + 8 x_6 + 10 x_9 <= 10
c7: 5 x_0 + 7 x_7 <= 10
c8: 4 x_1 + 5 x_4 + 6 x_8 <= 10
c9: 3 x_2 + 8 x_6 + 10 x_9 <= 10




Binary

x_0 x_1 x_2 x_3 x_4 x_5 x_6 x_7 x_8 x_9

 


End
